Test: fpga13_9_sat.cnf
Options: 
WARNING: for repeatability, setting FPU to use double precision
============================[ Problem Statistics ]=============================
|                                                                             |
|  Number of symmetries:           26                                         |
|  Number of invertingSyms:         0                                         |
|  Number of variables:           176                                         |
|  Number of clauses:             759                                         |
|  Parse time:                   0.00 s                                       |
|                                                                             |
============================[ Search Statistics ]==============================
| Conflicts |          ORIGINAL         |          LEARNT          | Progress |
|           |    Vars  Clauses Literals |    Limit  Clauses Lit/Cl |          |
===============================================================================
|       100 |     176      759     2031 |      278      244     45 |  0.003 % |
|       250 |     176      759     2031 |      306      228     37 |  0.029 % |
===============================================================================
restarts              : 3
conflicts             : 367            (45875 /sec)
symconflicts          : 50             (6250 /sec)
decisions             : 696            (0.00 % random) (87000 /sec)
propagations          : 7705           (963125 /sec)
sympropagations       : 360            (45000 /sec)
conflict literals     : 15437          (2.37 % deleted)
literals     : 15437          (2.37 % deleted)

HEURISTIC USAGES
random                : 0           
activity w/ lookahead : 0           
activity no lookahead : 0           
original sp           : 695         
sym count             : 0           

Memory used           : 5.00 MB
CPU time              : 0.008 s

SATISFIABLE
